DATASET = "thpack3";
INSTANCE = "041";

WIDTH = 233;
HEIGHT = 220;
LENGTH = 587;

NO_OF_SHAPES = 8;
size = [|
  109,80,68 |
  90,45,31 |
  66,56,34 |
  76,66,34 |
  111,80,53 |
  86,59,29 |
  80,72,63 |
  81,47,22 |
|];

verticality = [|
  1,1,1 |
  0,1,1 |
  1,1,1 |
  0,1,1 |
  0,1,1 |
  0,0,1 |
  1,1,1 |
  0,0,1 |
|];

box_count = [
  12,
  24,
  11,
  18,
  15,
  17,
  12,
  15,
];
